120
1000
200
199
199
199
198
198
198
198
198
198
198
197
197
197
197
197
196
196
195
195
194
193
193
193
192
192
192
191
190
190
190
190
189
189
188
188
187
185
185
185
185
185
185
184
183
182
182
181
181
180
179
178
178
177
177
177
176
173
173
172
172
172
172
171
171
171
171
171
171
169
169
169
169
169
169
169
168
168
167
167
167
165
165
163
163
162
162
162
161
161
161
161
160
160
159
158
158
158
157
157
157
157
156
155
155
155
154
154
153
152
152
152
151
151
151
150
150
150
150
150
